c number of pigeons = 7 ; number of holes = 6
p cnf 42 259
1 2 3 4 5 6 0
7 8 9 10 11 12 0
13 14 15 16 17 18 0
19 20 21 22 23 24 0
25 26 27 28 29 30 0
31 32 33 34 35 36 0
37 38 39 40 41 42 0
-1 -7 0
-1 -13 0
-1 -19 0
-1 -25 0
-1 -31 0
-1 -37 0
-7 -1 0
-7 -13 0
-7 -19 0
-7 -25 0
-7 -31 0
-7 -37 0
-13 -1 0
-13 -7 0
-13 -19 0
-13 -25 0
-13 -31 0
-13 -37 0
-19 -1 0
-19 -7 0
-19 -13 0
-19 -25 0
-19 -31 0
-19 -37 0
-25 -1 0
-25 -7 0
-25 -13 0
-25 -19 0
-25 -31 0
-25 -37 0
-31 -1 0
-31 -7 0
-31 -13 0
-31 -19 0
-31 -25 0
-31 -37 0
-37 -1 0
-37 -7 0
-37 -13 0
-37 -19 0
-37 -25 0
-37 -31 0
-2 -8 0
-2 -14 0
-2 -20 0
-2 -26 0
-2 -32 0
-2 -38 0
-8 -2 0
-8 -14 0
-8 -20 0
-8 -26 0
-8 -32 0
-8 -38 0
-14 -2 0
-14 -8 0
-14 -20 0
-14 -26 0
-14 -32 0
-14 -38 0
-20 -2 0
-20 -8 0
-20 -14 0
-20 -26 0
-20 -32 0
-20 -38 0
-26 -2 0
-26 -8 0
-26 -14 0
-26 -20 0
-26 -32 0
-26 -38 0
-32 -2 0
-32 -8 0
-32 -14 0
-32 -20 0
-32 -26 0
-32 -38 0
-38 -2 0
-38 -8 0
-38 -14 0
-38 -20 0
-38 -26 0
-38 -32 0
-3 -9 0
-3 -15 0
-3 -21 0
-3 -27 0
-3 -33 0
-3 -39 0
-9 -3 0
-9 -15 0
-9 -21 0
-9 -27 0
-9 -33 0
-9 -39 0
-15 -3 0
-15 -9 0
-15 -21 0
-15 -27 0
-15 -33 0
-15 -39 0
-21 -3 0
-21 -9 0
-21 -15 0
-21 -27 0
-21 -33 0
-21 -39 0
-27 -3 0
-27 -9 0
-27 -15 0
-27 -21 0
-27 -33 0
-27 -39 0
-33 -3 0
-33 -9 0
-33 -15 0
-33 -21 0
-33 -27 0
-33 -39 0
-39 -3 0
-39 -9 0
-39 -15 0
-39 -21 0
-39 -27 0
-39 -33 0
-4 -10 0
-4 -16 0
-4 -22 0
-4 -28 0
-4 -34 0
-4 -40 0
-10 -4 0
-10 -16 0
-10 -22 0
-10 -28 0
-10 -34 0
-10 -40 0
-16 -4 0
-16 -10 0
-16 -22 0
-16 -28 0
-16 -34 0
-16 -40 0
-22 -4 0
-22 -10 0
-22 -16 0
-22 -28 0
-22 -34 0
-22 -40 0
-28 -4 0
-28 -10 0
-28 -16 0
-28 -22 0
-28 -34 0
-28 -40 0
-34 -4 0
-34 -10 0
-34 -16 0
-34 -22 0
-34 -28 0
-34 -40 0
-40 -4 0
-40 -10 0
-40 -16 0
-40 -22 0
-40 -28 0
-40 -34 0
-5 -11 0
-5 -17 0
-5 -23 0
-5 -29 0
-5 -35 0
-5 -41 0
-11 -5 0
-11 -17 0
-11 -23 0
-11 -29 0
-11 -35 0
-11 -41 0
-17 -5 0
-17 -11 0
-17 -23 0
-17 -29 0
-17 -35 0
-17 -41 0
-23 -5 0
-23 -11 0
-23 -17 0
-23 -29 0
-23 -35 0
-23 -41 0
-29 -5 0
-29 -11 0
-29 -17 0
-29 -23 0
-29 -35 0
-29 -41 0
-35 -5 0
-35 -11 0
-35 -17 0
-35 -23 0
-35 -29 0
-35 -41 0
-41 -5 0
-41 -11 0
-41 -17 0
-41 -23 0
-41 -29 0
-41 -35 0
-6 -12 0
-6 -18 0
-6 -24 0
-6 -30 0
-6 -36 0
-6 -42 0
-12 -6 0
-12 -18 0
-12 -24 0
-12 -30 0
-12 -36 0
-12 -42 0
-18 -6 0
-18 -12 0
-18 -24 0
-18 -30 0
-18 -36 0
-18 -42 0
-24 -6 0
-24 -12 0
-24 -18 0
-24 -30 0
-24 -36 0
-24 -42 0
-30 -6 0
-30 -12 0
-30 -18 0
-30 -24 0
-30 -36 0
-30 -42 0
-36 -6 0
-36 -12 0
-36 -18 0
-36 -24 0
-36 -30 0
-36 -42 0
-42 -6 0
-42 -12 0
-42 -18 0
-42 -24 0
-42 -30 0
-42 -36 0